c This is QMaxSAT 2017 based on 14.07
c This is Glucose 3.0
c This is MiniSat 2.2.0
c WARNING: for repeatability, setting FPU to use double precision
c card = mrwto, comp = 0, pmodel = 0, narr = 6, mct = 42, verb = 0
cr firstCPXsol 0 0 0
c top = 127531
c |  Number of variables:    4418                                             |
c |  Number of clauses:      184102                                           |
c |  Weight of hard clauses: 127531                                           |
c |  Number of soft clauses: 12792                                            |
c |  Number of unit soft clauses: 0                                           |
c |  Maximum Cardinality (by unit): 985740       (0           )               |
c last restart ## conflicts  :  0 961 
o 825 | cpuTime 0.039598 s
c Sum of weights = 164290
c A number of soft clauses remained = 2132
c MRWTO encoding for Pseudo-Boolean Constraints
c sizeMax=825
c No.0 Divisor=10	generated by pow1
c No.1 Divisor=10	generated by pow1
c No.2 Divisor=10	generated by pow1
c p0= 10	p1= 10	p2= 10	
c number of digits = 4
c linkingVar[0].size = 10, linkingVar[1].size = 10, linkingVar[2].size = 9, linkingVar[3].size = 1, 
c Pseudo-Boolean Constraints: 39921 variables and 325970 clauses
c Sum of weights = 164290
c A number of soft clauses remained = 2132
c MRWTO encoding for Pseudo-Boolean Constraints
c sizeMax=825
c No.0 Divisor=10	generated by pow1
c No.1 Divisor=10	generated by pow1
c No.2 Divisor=10	generated by pow1
c p0= 10	p1= 10	p2= 10	
c number of digits = 4
c linkingVar[0].size = 10, linkingVar[1].size = 10, linkingVar[2].size = 9, linkingVar[3].size = 1, 
c Pseudo-Boolean Constraints: 39921 variables and 325970 clauses
c Sum of weights = 164290
c A number of soft clauses remained = 2132
c MRWTO encoding for Pseudo-Boolean Constraints
c sizeMax=825
c No.0 Divisor=10	generated by pow1
c No.1 Divisor=10	generated by pow1
c No.2 Divisor=10	generated by pow1
c p0= 10	p1= 10	p2= 10	
c number of digits = 4
c linkingVar[0].size = 10, linkingVar[1].size = 10, linkingVar[2].size = 9, linkingVar[3].size = 1, 
c Pseudo-Boolean Constraints: 39921 variables and 325970 clauses
c Sum of weights = 164290
c A number of soft clauses remained = 2132
c MRWTO encoding for Pseudo-Boolean Constraints
c sizeMax=825
c No.0 Divisor=10	generated by pow1
c No.1 Divisor=10	generated by pow1
c No.2 Divisor=10	generated by pow1
c p0= 10	p1= 10	p2= 10	
c number of digits = 4
c linkingVar[0].size = 10, linkingVar[1].size = 10, linkingVar[2].size = 9, linkingVar[3].size = 1, 
c Pseudo-Boolean Constraints: 39921 variables and 325970 clauses
c Sum of weights = 164290
c A number of soft clauses remained = 2132
c MRWTO encoding for Pseudo-Boolean Constraints
c sizeMax=825
c No.0 Divisor=10	generated by pow1
c No.1 Divisor=10	generated by pow1
c No.2 Divisor=10	generated by pow1
c p0= 10	p1= 10	p2= 10	
c number of digits = 4
c linkingVar[0].size = 10, linkingVar[1].size = 10, linkingVar[2].size = 9, linkingVar[3].size = 1, 
c Pseudo-Boolean Constraints: 39921 variables and 325970 clauses
c Sum of weights = 164290
c A number of soft clauses remained = 2132
c MRWTO encoding for Pseudo-Boolean Constraints
c sizeMax=825
c No.0 Divisor=10	generated by pow1
c No.1 Divisor=10	generated by pow1
c No.2 Divisor=10	generated by pow1
c p0= 10	p1= 10	p2= 10	
c number of digits = 4
c linkingVar[0].size = 10, linkingVar[1].size = 10, linkingVar[2].size = 9, linkingVar[3].size = 1, 
c Pseudo-Boolean Constraints: 39921 variables and 325970 clauses
c last restart ## conflicts  :  602 3941 
o 805 | cpuTime 2.98727 s
c last restart ## conflicts  :  408 5208 
o 796 | cpuTime 5.49956 s
c last restart ## conflicts  :  135 5213 
o 654 | cpuTime 8.13551 s
c last restart ## conflicts  :  216 2060 
o 650 | cpuTime 17.9037 s
c last restart ## conflicts  :  381 2831 
o 638 | cpuTime 41.7293 s
c last restart ## conflicts  :  251 2372 
o 635 | cpuTime 49.4313 s
c last restart ## conflicts  :  310 1771 
o 596 | cpuTime 55.4038 s
c last restart ## conflicts  :  326 1915 
o 595 | cpuTime 58.9878 s
c last restart ## conflicts  :  455 2395 
o 588 | cpuTime 121.237 s
c last restart ## conflicts  :  412 2148 
o 567 | cpuTime 126.063 s
c last restart ## conflicts  :  542 3496 
o 561 | cpuTime 487.252 s
c last restart ## conflicts  :  352 3651 
o 521 | cpuTime 537.448 s
c last restart ## conflicts  :  110 2141 
o 490 | cpuTime 1329.95 s
s UNKNOWN
c Search is stopped by a limit (maybe time-limit)
cr positiVarArr: [ | 46(1->41) | 74(1->22) | 137(1->38) | 183(1->37) | 222(1->29) | 249(1->9) | 286(2->1) | 341(3->7) | 382(4->1) | 468(5->40) | 506(6->31) | 530(7->8) | 592(8->23) | 630(9->14) | 665(10->2) | 734(11->24) | 767(12->10) | 815(13->11) | 866(14->15) | 898(15->1) | 962(16->17) | 1010(17->18) | 1058(18->19) | 1098(19->12) | 1139(20->6) | 1207(21->27) | 1257(22->30) | 1299(23->25) | 1360(24->39) | 1403(25->35) | 1428(26->13) | 1490(27->28) | 1513(28->4) | 1576(29->20) | 1629(30->26) | 1647(31->1) | 1733(32->36) | 1776(33->32) | 1824(34->33) | 1872(35->34) | 1881(36->1) | 1953(37->21) | 1995(38->16) | 2024(39->1) | 2076(40->3) | 2162(41->42) | 2172(42->5) | ]
cr the 1-th chain: [ 1->41->42->5->40->3->7->8->23->25->35->34->33->32->36->1 ] (#non-depot=14) {#cumul.=15}
cr the 2-th chain: [ 1->22->30->26->13->11->24->39->1 ] (#non-depot=7) {#cumul.=22}
cr the 3-th chain: [ 1->38->16->17->18->19->12->10->2->1 ] (#non-depot=8) {#cumul.=30}
cr the 4-th chain: [ 1->37->21->27->28->4->1 ] (#non-depot=5) {#cumul.=35}
cr the 5-th chain: [ 1->29->20->6->31->1 ] (#non-depot=4) {#cumul.=39}
cr the 6-th chain: [ 1->9->14->15->1 ] (#non-depot=3) {#cumul.=42}
c Latest Answer = 0 by 14 loops
c restarts              : 72909
c conflicts             : 19329154       (5379 /sec)
c decisions             : 103231940      (0.00 % random) (28726 /sec)
c propagations          : 31581264129    (8788118 /sec)
c conflict literals     : 2028015682     (33.21 % deleted)
c Memory used           : 664.00 MB
c CPU time              : 3593.63 s
